sat
(
  (define-fun C2_VM1 () Int
    0)
  (define-fun C4_VM2 () Int
    1)
  (define-fun C1_VM3 () Int
    0)
  (define-fun C1_VM5 () Int
    0)
  (define-fun PriceProv2 () Int
    116)
  (define-fun ProcProv3 () Int
    2)
  (define-fun PriceProv1 () Int
    210)
  (define-fun C5_VM5 () Int
    0)
  (define-fun C3_VM5 () Int
    1)
  (define-fun C3_VM3 () Int
    0)
  (define-fun StorageProv2 () Int
    2000)
  (define-fun C3_VM1 () Int
    0)
  (define-fun StorageProv3 () Int
    2000)
  (define-fun StorageProv4 () Int
    2000)
  (define-fun MemProv5 () Int
    7500)
  (define-fun C4_VM4 () Int
    0)
  (define-fun C3_VM2 () Int
    0)
  (define-fun PriceProv5 () Int
    210)
  (define-fun C5_VM2 () Int
    0)
  (define-fun C4_VM5 () Int
    0)
  (define-fun VM4Type () Int
    341)
  (define-fun C4_VM3 () Int
    0)
  (define-fun ProcProv4 () Int
    4)
  (define-fun StorageProv5 () Int
    2000)
  (define-fun ProcProv5 () Int
    4)
  (define-fun VM1Type () Int
    341)
  (define-fun C2_VM5 () Int
    0)
  (define-fun C2_VM2 () Int
    0)
  (define-fun StorageProv1 () Int
    2000)
  (define-fun VM5Type () Int
    341)
  (define-fun C3_VM4 () Int
    0)
  (define-fun C1_VM2 () Int
    0)
  (define-fun PriceProv3 () Int
    116)
  (define-fun C5_VM3 () Int
    0)
  (define-fun MemProv4 () Int
    7500)
  (define-fun MemProv3 () Int
    3750)
  (define-fun C2_VM3 () Int
    1)
  (define-fun C2_VM4 () Int
    0)
  (define-fun C4_VM1 () Int
    0)
  (define-fun ProcProv1 () Int
    4)
  (define-fun MemProv2 () Int
    3750)
  (define-fun C5_VM4 () Int
    1)
  (define-fun MemProv1 () Int
    7500)
  (define-fun VM2Type () Int
    433)
  (define-fun ProcProv2 () Int
    2)
  (define-fun PriceProv4 () Int
    210)
  (define-fun C1_VM4 () Int
    0)
  (define-fun VM3Type () Int
    433)
  (define-fun C5_VM1 () Int
    0)
  (define-fun C1_VM1 () Int
    1)
)
(objectives
 ( 20)
 ((+ 0 PriceProv1 PriceProv2 PriceProv3 PriceProv4 PriceProv5) 862)
)
(:added-eqs                   344170
 :arith-eq-adapter            478872
 :arith-bound-propagations-lp 864
 :arith-conflicts             47
 :arith-diseq                 750047
 :arith-fixed-eqs             3139
 :arith-lower                 893606
 :arith-make-feasible         307495
 :arith-max-columns           553
 :arith-max-rows              17
 :arith-upper                 664533
 :binary-propagations         2202837
 :bv-bit2core                 22387
 :bv-dynamic-diseqs           1497198
 :bv->core-eq                 1003
 :conflicts                   5760
 :decisions                   972138
 :del-clause                  2118728
 :final-checks                48
 :max-memory                  84.06
 :maxsat-cores                12
 :memory                      81.26
 :minimized-lits              2062
 :mk-bool-var                 906180
 :mk-clause                   2120733
 :mk-clause-binary            12171
 :num-allocs                  10437049718.00
 :num-checks                  85
 :pb-conflicts                27
 :pb-predicates               4
 :pb-propagations             787
 :pb-resolves                 27
 :propagations                3055638
 :restarts                    32
 :rlimit-count                42204460
 :solve-eqs-elim-vars         2
 :solve-eqs-steps             16
 :time                        6.37
 :total-time                  6.39)
